1536827840
1536827840
1536827840
1536827840
1536827840
1536827840
1536827840
1536827840
1536827840
1536831283
1857550172
1857550172
1857550172
1857765032
1857637050
1857741555
1857765032
1857637050
1857550172
1857550172
1558959923
1558838421
1558838421
1558838421
1558838421
1558838421
1558838421
1558838421
1558838421
1558838421
1622593515
1622615185
1622593515
1622615185
1622686047
1622599136
1622578648
1622715894
1622715894
1622615185
